p cnf 667 1092
-110 -77 -68 126 0
-110 -77 -68 -126 0
78 -108 -96 127 0
78 -108 -96 -127 0
-72 86 67 128 0
-72 86 67 -128 0
-64 -29 -1 129 0
-64 -29 -1 -129 0
110 -104 8 130 0
110 -104 8 -130 0
-50 66 -106 131 0
-50 66 -106 -131 0
-96 90 -79 132 0
-96 90 -79 -132 0
-4 75 30 133 0
-4 75 30 -133 0
-109 -123 -88 134 0
-109 -123 -88 -134 0
-67 -71 63 135 0
-67 -71 63 -135 0
-103 17 -84 136 0
-103 17 -84 -136 0
55 105 60 137 0
55 105 60 -137 0
-77 -49 -12 138 0
-77 -49 -12 -138 0
41 -103 68 139 0
41 -103 68 -139 0
88 -28 -100 140 0
88 -28 -100 -140 0
44 79 -84 141 0
44 79 -84 -141 0
98 -91 -72 142 0
98 -91 -72 -142 0
-95 50 41 143 0
-95 50 41 -143 0
-51 -72 -13 144 0
-51 -72 -13 -144 0
-23 -39 -2 145 0
-23 -39 -2 -145 0
65 -107 -57 146 0
65 -107 -57 -146 0
116 -82 59 147 0
116 -82 59 -147 0
-54 -84 -82 148 0
-54 -84 -82 -148 0
4 -114 60 149 0
4 -114 60 -149 0
-116 5 -48 150 0
-116 5 -48 -150 0
95 -66 -94 151 0
95 -66 -94 -151 0
120 79 34 152 0
120 79 34 -152 0
85 69 106 153 0
85 69 106 -153 0
-29 42 33 154 0
-29 42 33 -154 0
98 49 19 155 0
98 49 19 -155 0
-7 11 87 156 0
-7 11 87 -156 0
-52 -32 4 157 0
-52 -32 4 -157 0
-109 -44 88 158 0
-109 -44 88 -158 0
8 -113 -42 159 0
8 -113 -42 -159 0
-55 -48 -23 160 0
-55 -48 -23 -160 0
95 75 -73 161 0
95 75 -73 -161 0
-106 101 -16 162 0
-106 101 -16 -162 0
-3 45 -20 163 0
-3 45 -20 -163 0
91 16 92 164 0
91 16 92 -164 0
108 112 89 165 0
108 112 89 -165 0
68 -30 106 166 0
68 -30 106 -166 0
125 66 -5 167 0
125 66 -5 -167 0
116 52 -111 168 0
116 52 -111 -168 0
-114 -108 -10 169 0
-114 -108 -10 -169 0
-121 -98 -52 170 0
-121 -98 -52 -170 0
-117 45 -17 171 0
-117 45 -17 -171 0
1 -60 -42 172 0
1 -60 -42 -172 0
72 -66 17 173 0
72 -66 17 -173 0
50 63 16 174 0
50 63 16 -174 0
125 -14 -103 175 0
125 -14 -103 -175 0
39 90 125 176 0
39 90 125 -176 0
-32 -62 -119 177 0
-32 -62 -119 -177 0
38 -14 -9 178 0
38 -14 -9 -178 0
-87 120 21 179 0
-87 120 21 -179 0
-109 -54 52 180 0
-109 -54 52 -180 0
41 -19 114 181 0
41 -19 114 -181 0
-99 105 110 182 0
-99 105 110 -182 0
35 90 65 183 0
35 90 65 -183 0
1 -106 4 184 0
1 -106 4 -184 0
-59 67 -112 185 0
-59 67 -112 -185 0
-9 -68 111 186 0
-9 -68 111 -186 0
46 82 -39 187 0
46 82 -39 -187 0
82 84 -56 188 0
82 84 -56 -188 0
31 2 55 189 0
31 2 55 -189 0
-92 -81 -80 190 0
-92 -81 -80 -190 0
45 -75 50 191 0
45 -75 50 -191 0
89 117 114 192 0
89 117 114 -192 0
93 -103 -120 193 0
93 -103 -120 -193 0
98 -30 122 194 0
98 -30 122 -194 0
-40 -30 100 195 0
-40 -30 100 -195 0
101 28 115 196 0
101 28 115 -196 0
57 22 -52 197 0
57 22 -52 -197 0
-81 117 51 198 0
-81 117 51 -198 0
-70 112 79 199 0
-70 112 79 -199 0
86 54 47 200 0
86 54 47 -200 0
-101 23 -58 201 0
-101 23 -58 -201 0
-26 104 12 202 0
-26 104 12 -202 0
-25 103 26 203 0
-25 103 26 -203 0
-1 -123 27 204 0
-1 -123 27 -204 0
96 -25 94 205 0
96 -25 94 -205 0
-47 60 -40 206 0
-47 60 -40 -206 0
-95 51 -65 207 0
-95 51 -65 -207 0
16 -28 -64 208 0
16 -28 -64 -208 0
-82 103 114 209 0
-82 103 114 -209 0
-24 27 76 210 0
-24 27 76 -210 0
9 -92 -95 211 0
9 -92 -95 -211 0
-9 40 46 212 0
-9 40 46 -212 0
-35 -36 75 213 0
-35 -36 75 -213 0
-90 34 -30 214 0
-90 34 -30 -214 0
-5 40 113 215 0
-5 40 113 -215 0
-115 -41 -124 216 0
-115 -41 -124 -216 0
-80 98 109 217 0
-80 98 109 -217 0
-47 80 -40 218 0
-47 80 -40 -218 0
-48 -18 26 219 0
-48 -18 26 -219 0
38 99 -82 220 0
38 99 -82 -220 0
58 44 -30 221 0
58 44 -30 -221 0
-124 -83 90 222 0
-124 -83 90 -222 0
112 -4 90 223 0
112 -4 90 -223 0
18 -47 35 224 0
18 -47 35 -224 0
86 37 104 225 0
86 37 104 -225 0
31 120 -76 226 0
31 120 -76 -226 0
53 49 -36 227 0
53 49 -36 -227 0
-28 18 -121 228 0
-28 18 -121 -228 0
10 -62 41 229 0
10 -62 41 -229 0
49 -65 77 230 0
49 -65 77 -230 0
60 -13 8 231 0
60 -13 8 -231 0
-89 125 107 232 0
-89 125 107 -232 0
-116 44 -30 233 0
-116 44 -30 -233 0
106 -45 -10 234 0
106 -45 -10 -234 0
61 13 54 235 0
61 13 54 -235 0
26 -100 -49 236 0
26 -100 -49 -236 0
-91 -73 121 237 0
-91 -73 121 -237 0
-85 63 -56 238 0
-85 63 -56 -238 0
-63 28 -11 239 0
-63 28 -11 -239 0
-61 -110 113 240 0
-61 -110 113 -240 0
-26 22 -3 241 0
-26 22 -3 -241 0
-69 -21 60 242 0
-69 -21 60 -242 0
76 52 -69 243 0
76 52 -69 -243 0
-98 104 -20 244 0
-98 104 -20 -244 0
-84 -111 53 245 0
-84 -111 53 -245 0
-99 -1 -71 246 0
-99 -1 -71 -246 0
89 -19 -20 247 0
89 -19 -20 -247 0
-30 34 -40 248 0
-30 34 -40 -248 0
-90 -13 -59 249 0
-90 -13 -59 -249 0
-53 80 -95 250 0
-53 80 -95 -250 0
-29 -125 71 251 0
-29 -125 71 -251 0
-99 -64 -39 252 0
-99 -64 -39 -252 0
106 -117 -30 253 0
106 -117 -30 -253 0
101 54 -83 254 0
101 54 -83 -254 0
-18 -90 34 255 0
-18 -90 34 -255 0
58 -99 59 256 0
58 -99 59 -256 0
24 46 98 257 0
24 46 98 -257 0
-58 20 51 258 0
-58 20 51 -258 0
-32 15 -70 259 0
-32 15 -70 -259 0
-68 67 72 260 0
-68 67 72 -260 0
-35 -111 115 261 0
-35 -111 115 -261 0
-2 -12 108 262 0
-2 -12 108 -262 0
-34 -6 -42 263 0
-34 -6 -42 -263 0
100 -125 97 264 0
100 -125 97 -264 0
-26 56 86 265 0
-26 56 86 -265 0
-114 65 -125 266 0
-114 65 -125 -266 0
40 34 -124 267 0
40 34 -124 -267 0
-44 42 77 268 0
-44 42 77 -268 0
42 101 45 269 0
42 101 45 -269 0
-33 45 -89 270 0
-33 45 -89 -270 0
8 -6 -60 271 0
8 -6 -60 -271 0
-119 25 1 272 0
-119 25 1 -272 0
64 91 51 273 0
64 91 51 -273 0
-61 -93 27 274 0
-61 -93 27 -274 0
14 -91 -102 275 0
14 -91 -102 -275 0
15 -114 -31 276 0
15 -114 -31 -276 0
16 123 124 277 0
16 123 124 -277 0
-71 9 -57 278 0
-71 9 -57 -278 0
21 27 10 279 0
21 27 10 -279 0
-14 20 21 280 0
-14 20 21 -280 0
-87 -42 -118 281 0
-87 -42 -118 -281 0
-115 -79 88 282 0
-115 -79 88 -282 0
120 -33 -15 283 0
120 -33 -15 -283 0
34 14 -100 284 0
34 14 -100 -284 0
-98 28 125 285 0
-98 28 125 -285 0
-122 -105 68 286 0
-122 -105 68 -286 0
79 -87 85 287 0
79 -87 85 -287 0
47 -68 -78 288 0
47 -68 -78 -288 0
-10 -28 -85 289 0
-10 -28 -85 -289 0
-90 44 2 290 0
-90 44 2 -290 0
116 34 -125 291 0
116 34 -125 -291 0
64 102 58 292 0
64 102 58 -292 0
69 65 -74 293 0
69 65 -74 -293 0
92 -11 96 294 0
92 -11 96 -294 0
25 84 -86 295 0
25 84 -86 -295 0
46 -38 32 296 0
46 -38 32 -296 0
-17 34 32 297 0
-17 34 32 -297 0
81 125 -114 298 0
81 125 -114 -298 0
-97 113 -1 299 0
-97 113 -1 -299 0
-109 -63 -78 300 0
-109 -63 -78 -300 0
-67 9 37 301 0
-67 9 37 -301 0
28 71 -41 302 0
28 71 -41 -302 0
-108 100 -97 303 0
-108 100 -97 -303 0
-87 100 106 304 0
-87 100 106 -304 0
-81 26 33 305 0
-81 26 33 -305 0
36 -53 -69 306 0
36 -53 -69 -306 0
-38 -53 -117 307 0
-38 -53 -117 -307 0
80 47 61 308 0
80 47 61 -308 0
-13 -26 34 309 0
-13 -26 34 -309 0
-55 93 8 310 0
-55 93 8 -310 0
-120 -98 -105 311 0
-120 -98 -105 -311 0
15 -19 -14 312 0
15 -19 -14 -312 0
94 -70 8 313 0
94 -70 8 -313 0
-83 -8 84 314 0
-83 -8 84 -314 0
42 -36 119 315 0
42 -36 119 -315 0
-101 119 28 316 0
-101 119 28 -316 0
41 -72 29 317 0
41 -72 29 -317 0
16 -46 -88 318 0
16 -46 -88 -318 0
83 32 -90 319 0
83 32 -90 -319 0
67 -64 -107 320 0
67 -64 -107 -320 0
115 88 100 321 0
115 88 100 -321 0
26 83 103 322 0
26 83 103 -322 0
72 29 100 323 0
72 29 100 -323 0
-117 9 -80 324 0
-117 9 -80 -324 0
27 116 40 325 0
27 116 40 -325 0
114 40 -88 326 0
114 40 -88 -326 0
82 -113 97 327 0
82 -113 97 -327 0
-82 -28 125 328 0
-82 -28 125 -328 0
107 89 -3 329 0
107 89 -3 -329 0
-89 4 18 330 0
-89 4 18 -330 0
86 93 32 331 0
86 93 32 -331 0
43 -105 49 332 0
43 -105 49 -332 0
39 71 77 333 0
39 71 77 -333 0
-87 -43 120 334 0
-87 -43 120 -334 0
-68 69 -11 335 0
-68 69 -11 -335 0
4 2 32 336 0
4 2 32 -336 0
97 -93 35 337 0
97 -93 35 -337 0
70 21 95 338 0
70 21 95 -338 0
52 -20 73 339 0
52 -20 73 -339 0
-53 52 122 340 0
-53 52 122 -340 0
2 16 -40 341 0
2 16 -40 -341 0
-88 23 58 342 0
-88 23 58 -342 0
-22 113 -59 343 0
-22 113 -59 -343 0
-22 -60 -13 344 0
-22 -60 -13 -344 0
22 -34 48 345 0
22 -34 48 -345 0
-57 98 -74 346 0
-57 98 -74 -346 0
-62 -94 -22 347 0
-62 -94 -22 -347 0
-33 -113 53 348 0
-33 -113 53 -348 0
-84 -125 -121 349 0
-84 -125 -121 -349 0
92 116 -9 350 0
92 116 -9 -350 0
73 66 -78 351 0
73 66 -78 -351 0
20 -99 53 352 0
20 -99 53 -352 0
107 -125 -7 353 0
107 -125 -7 -353 0
-95 50 -109 354 0
-95 50 -109 -354 0
-66 112 -68 355 0
-66 112 -68 -355 0
55 -73 18 356 0
55 -73 18 -356 0
91 113 -29 357 0
91 113 -29 -357 0
37 11 -120 358 0
37 11 -120 -358 0
27 -14 11 359 0
27 -14 11 -359 0
88 -45 17 360 0
88 -45 17 -360 0
-107 49 89 361 0
-107 49 89 -361 0
-53 22 -45 362 0
-53 22 -45 -362 0
-77 85 72 363 0
-77 85 72 -363 0
21 -18 -43 364 0
21 -18 -43 -364 0
119 40 -89 365 0
119 40 -89 -365 0
5 82 70 366 0
5 82 70 -366 0
57 -34 -46 367 0
57 -34 -46 -367 0
89 24 -79 368 0
89 24 -79 -368 0
-68 -39 -100 369 0
-68 -39 -100 -369 0
57 -64 10 370 0
57 -64 10 -370 0
-2 -92 125 371 0
-2 -92 125 -371 0
-73 26 -46 372 0
-73 26 -46 -372 0
-113 2 18 373 0
-113 2 18 -373 0
-24 -104 74 374 0
-24 -104 74 -374 0
-94 20 83 375 0
-94 20 83 -375 0
22 -42 -12 376 0
22 -42 -12 -376 0
-34 60 7 377 0
-34 60 7 -377 0
-72 -41 -47 378 0
-72 -41 -47 -378 0
-125 7 62 379 0
-125 7 62 -379 0
92 -98 -45 380 0
92 -98 -45 -380 0
-93 -97 -2 381 0
-93 -97 -2 -381 0
-85 -26 -49 382 0
-85 -26 -49 -382 0
12 52 -18 383 0
12 52 -18 -383 0
-16 -15 6 384 0
-16 -15 6 -384 0
102 -55 108 385 0
102 -55 108 -385 0
-105 71 31 386 0
-105 71 31 -386 0
95 -9 49 387 0
95 -9 49 -387 0
120 112 -80 388 0
120 112 -80 -388 0
12 60 -111 389 0
12 60 -111 -389 0
28 113 -3 390 0
28 113 -3 -390 0
-69 -113 -50 391 0
-69 -113 -50 -391 0
122 -64 -108 392 0
122 -64 -108 -392 0
74 -76 -69 393 0
74 -76 -69 -393 0
-124 -99 47 394 0
-124 -99 47 -394 0
57 18 45 395 0
57 18 45 -395 0
-38 -96 41 396 0
-38 -96 41 -396 0
62 -66 73 397 0
62 -66 73 -397 0
-2 -60 -106 398 0
-2 -60 -106 -398 0
-58 -86 42 399 0
-58 -86 42 -399 0
-36 1 -51 400 0
-36 1 -51 -400 0
8 97 -49 401 0
8 97 -49 -401 0
58 122 5 402 0
58 122 5 -402 0
-43 -103 -15 403 0
-43 -103 -15 -403 0
45 -26 125 404 0
45 -26 125 -404 0
59 95 83 405 0
59 95 83 -405 0
-22 124 -84 406 0
-22 124 -84 -406 0
2 -55 9 407 0
2 -55 9 -407 0
41 -12 -31 408 0
41 -12 -31 -408 0
13 -44 -121 409 0
13 -44 -121 -409 0
45 125 -59 410 0
45 125 -59 -410 0
-37 -35 85 411 0
-37 -35 85 -411 0
-71 -106 73 412 0
-71 -106 73 -412 0
8 -27 54 413 0
8 -27 54 -413 0
8 -95 96 414 0
8 -95 96 -414 0
92 27 38 415 0
92 27 38 -415 0
-112 64 -86 416 0
-112 64 -86 -416 0
90 -5 45 417 0
90 -5 45 -417 0
79 92 58 418 0
79 92 58 -418 0
60 12 -110 419 0
60 12 -110 -419 0
-68 107 118 420 0
-68 107 118 -420 0
-31 -119 85 421 0
-31 -119 85 -421 0
-56 -29 -23 422 0
-56 -29 -23 -422 0
-7 19 -74 423 0
-7 19 -74 -423 0
-79 -85 -90 424 0
-79 -85 -90 -424 0
29 58 -85 425 0
29 58 -85 -425 0
42 69 85 426 0
42 69 85 -426 0
19 -117 -53 427 0
19 -117 -53 -427 0
-23 99 12 428 0
-23 99 12 -428 0
50 117 -123 429 0
50 117 -123 -429 0
-117 -83 -46 430 0
-117 -83 -46 -430 0
43 21 -28 431 0
43 21 -28 -431 0
-27 -40 79 432 0
-27 -40 79 -432 0
-73 -103 19 433 0
-73 -103 19 -433 0
123 -48 -120 434 0
123 -48 -120 -434 0
-3 60 -29 435 0
-3 60 -29 -435 0
-123 -59 -15 436 0
-123 -59 -15 -436 0
-27 -119 -56 437 0
-27 -119 -56 -437 0
53 -51 120 438 0
53 -51 120 -438 0
10 122 -99 439 0
10 122 -99 -439 0
112 -11 9 440 0
112 -11 9 -440 0
2 -88 106 441 0
2 -88 106 -441 0
118 -113 54 442 0
118 -113 54 -442 0
25 22 53 443 0
25 22 53 -443 0
71 43 49 444 0
71 43 49 -444 0
119 33 66 445 0
119 33 66 -445 0
50 -49 -118 446 0
50 -49 -118 -446 0
91 -58 68 447 0
91 -58 68 -447 0
-21 7 -57 448 0
-21 7 -57 -448 0
1 97 8 449 0
1 97 8 -449 0
104 10 88 450 0
104 10 88 -450 0
-76 -62 -59 451 0
-76 -62 -59 -451 0
-23 -58 57 452 0
-23 -58 57 -452 0
1 97 -45 453 0
1 97 -45 -453 0
22 -46 43 454 0
22 -46 43 -454 0
84 -73 -69 455 0
84 -73 -69 -455 0
-56 68 -18 456 0
-56 68 -18 -456 0
113 -34 -42 457 0
113 -34 -42 -457 0
82 124 90 458 0
82 124 90 -458 0
-72 -78 56 459 0
-72 -78 56 -459 0
-48 -66 -97 460 0
-48 -66 -97 -460 0
-71 43 33 461 0
-71 43 33 -461 0
-73 -19 -77 462 0
-73 -19 -77 -462 0
-106 20 74 463 0
-106 20 74 -463 0
80 -93 -81 464 0
80 -93 -81 -464 0
-34 -4 -6 465 0
-34 -4 -6 -465 0
65 -33 3 466 0
65 -33 3 -466 0
-100 83 -123 467 0
-100 83 -123 -467 0
69 41 21 468 0
69 41 21 -468 0
-93 -29 105 469 0
-93 -29 105 -469 0
11 -113 46 470 0
11 -113 46 -470 0
-112 -47 69 471 0
-112 -47 69 -471 0
35 48 -90 472 0
35 48 -90 -472 0
105 -80 -26 473 0
105 -80 -26 -473 0
25 61 -115 474 0
25 61 -115 -474 0
-47 -49 -87 475 0
-47 -49 -87 -475 0
-4 52 -115 476 0
-4 52 -115 -476 0
80 -75 -111 477 0
80 -75 -111 -477 0
30 -87 76 478 0
30 -87 76 -478 0
17 -112 105 479 0
17 -112 105 -479 0
-106 38 67 480 0
-106 38 67 -480 0
11 -9 -59 481 0
11 -9 -59 -481 0
64 -35 49 482 0
64 -35 49 -482 0
-46 109 -118 483 0
-46 109 -118 -483 0
41 56 67 484 0
41 56 67 -484 0
-38 -43 -95 485 0
-38 -43 -95 -485 0
111 -121 -109 486 0
111 -121 -109 -486 0
-18 -59 99 487 0
-18 -59 99 -487 0
-96 29 -36 488 0
-96 29 -36 -488 0
-43 -66 -5 489 0
-43 -66 -5 -489 0
41 -122 -108 490 0
41 -122 -108 -490 0
-110 87 -88 491 0
-110 87 -88 -491 0
32 -22 -17 492 0
32 -22 -17 -492 0
-57 58 28 493 0
-57 58 28 -493 0
41 63 -119 494 0
41 63 -119 -494 0
-112 -88 75 495 0
-112 -88 75 -495 0
62 83 12 496 0
62 83 12 -496 0
-107 -82 -38 497 0
-107 -82 -38 -497 0
123 -19 -58 498 0
123 -19 -58 -498 0
-79 -27 16 499 0
-79 -27 16 -499 0
25 -58 100 500 0
25 -58 100 -500 0
-88 80 36 501 0
-88 80 36 -501 0
-93 87 -90 502 0
-93 87 -90 -502 0
-89 67 -22 503 0
-89 67 -22 -503 0
67 79 115 504 0
67 79 115 -504 0
38 -83 -76 505 0
38 -83 -76 -505 0
-36 72 27 506 0
-36 72 27 -506 0
-124 -26 118 507 0
-124 -26 118 -507 0
-52 -80 108 508 0
-52 -80 108 -508 0
48 10 114 509 0
48 10 114 -509 0
89 -61 -96 510 0
89 -61 -96 -510 0
112 109 -27 511 0
112 109 -27 -511 0
44 54 -110 512 0
44 54 -110 -512 0
77 68 -56 513 0
77 68 -56 -513 0
-94 -64 9 514 0
-94 -64 9 -514 0
-95 -65 93 515 0
-95 -65 93 -515 0
20 -90 -24 516 0
20 -90 -24 -516 0
-6 21 7 517 0
-6 21 7 -517 0
-91 -9 22 518 0
-91 -9 22 -518 0
-37 46 28 519 0
-37 46 28 -519 0
88 -86 -27 520 0
88 -86 -27 -520 0
-48 30 90 521 0
-48 30 90 -521 0
-100 -28 -50 522 0
-100 -28 -50 -522 0
-56 93 38 523 0
-56 93 38 -523 0
-96 -72 -65 524 0
-96 -72 -65 -524 0
-58 28 -47 525 0
-58 28 -47 -525 0
-25 -104 15 526 0
-25 -104 15 -526 0
-32 47 50 527 0
-32 47 50 -527 0
-28 66 102 528 0
-28 66 102 -528 0
-84 113 -24 529 0
-84 113 -24 -529 0
44 -51 32 530 0
44 -51 32 -530 0
28 84 32 531 0
28 84 32 -531 0
48 -77 -103 532 0
48 -77 -103 -532 0
-31 28 -88 533 0
-31 28 -88 -533 0
-55 32 -58 534 0
-55 32 -58 -534 0
-63 -62 -7 535 0
-63 -62 -7 -535 0
111 -91 -71 536 0
111 -91 -71 -536 0
71 30 53 537 0
71 30 53 -537 0
-35 65 -42 538 0
-35 65 -42 -538 0
97 90 119 539 0
97 90 119 -539 0
-111 -106 73 540 0
-111 -106 73 -540 0
103 -60 -102 541 0
103 -60 -102 -541 0
-24 -23 114 542 0
-24 -23 114 -542 0
90 -106 -86 543 0
90 -106 -86 -543 0
-94 -74 86 544 0
-94 -74 86 -544 0
98 -88 108 545 0
98 -88 108 -545 0
56 -57 -116 546 0
56 -57 -116 -546 0
-117 -3 90 547 0
-117 -3 90 -547 0
-2 43 -16 548 0
-2 43 -16 -548 0
83 -18 66 549 0
83 -18 66 -549 0
46 -77 -6 550 0
46 -77 -6 -550 0
-86 -51 -16 551 0
-86 -51 -16 -551 0
-19 75 -122 552 0
-19 75 -122 -552 0
18 56 118 553 0
18 56 118 -553 0
-27 101 61 554 0
-27 101 61 -554 0
11 -65 -116 555 0
11 -65 -116 -555 0
-100 54 -37 556 0
-100 54 -37 -556 0
-110 23 -70 557 0
-110 23 -70 -557 0
57 23 -54 558 0
57 23 -54 -558 0
92 83 -46 559 0
92 83 -46 -559 0
66 -60 -4 560 0
66 -60 -4 -560 0
-42 50 25 561 0
-42 50 25 -561 0
74 25 52 562 0
74 25 52 -562 0
-16 -63 79 563 0
-16 -63 79 -563 0
15 -77 93 564 0
15 -77 93 -564 0
125 -44 78 565 0
125 -44 78 -565 0
-100 -16 -78 566 0
-100 -16 -78 -566 0
-28 44 17 567 0
-28 44 17 -567 0
-10 77 -85 568 0
-10 77 -85 -568 0
-100 -35 23 569 0
-100 -35 23 -569 0
85 -95 44 570 0
85 -95 44 -570 0
64 -72 34 571 0
64 -72 34 -571 0
9 99 -47 572 0
9 99 -47 -572 0
48 62 -59 573 0
48 62 -59 -573 0
-79 -125 -114 574 0
-79 -125 -114 -574 0
102 -27 54 575 0
102 -27 54 -575 0
-38 2 98 576 0
-38 2 98 -576 0
-75 27 -17 577 0
-75 27 -17 -577 0
104 -99 6 578 0
104 -99 6 -578 0
-117 60 -31 579 0
-117 60 -31 -579 0
-65 12 123 580 0
-65 12 123 -580 0
-19 70 -63 581 0
-19 70 -63 -581 0
36 -91 106 582 0
36 -91 106 -582 0
121 -65 -6 583 0
121 -65 -6 -583 0
33 -94 -48 584 0
33 -94 -48 -584 0
35 13 94 585 0
35 13 94 -585 0
93 25 -70 586 0
93 25 -70 -586 0
-110 -52 51 587 0
-110 -52 51 -587 0
123 -100 77 588 0
123 -100 77 -588 0
116 -8 -22 589 0
116 -8 -22 -589 0
-121 104 -108 590 0
-121 104 -108 -590 0
90 105 13 591 0
90 105 13 -591 0
-119 80 44 592 0
-119 80 44 -592 0
-82 33 8 593 0
-82 33 8 -593 0
-76 -15 83 594 0
-76 -15 83 -594 0
-109 -64 36 595 0
-109 -64 36 -595 0
-37 54 -36 596 0
-37 54 -36 -596 0
-64 57 -19 597 0
-64 57 -19 -597 0
37 98 -110 598 0
37 98 -110 -598 0
-105 -8 -7 599 0
-105 -8 -7 -599 0
116 104 -29 600 0
116 104 -29 -600 0
-50 88 -31 601 0
-50 88 -31 -601 0
-25 96 -44 602 0
-25 96 -44 -602 0
115 -13 -105 603 0
115 -13 -105 -603 0
-13 -77 -103 604 0
-13 -77 -103 -604 0
-66 -52 -96 605 0
-66 -52 -96 -605 0
-17 -66 -105 606 0
-17 -66 -105 -606 0
1 69 98 607 0
1 69 98 -607 0
39 11 -25 608 0
39 11 -25 -608 0
-115 56 -46 609 0
-115 56 -46 -609 0
34 72 45 610 0
34 72 45 -610 0
78 55 88 611 0
78 55 88 -611 0
-5 32 -102 612 0
-5 32 -102 -612 0
114 -37 -13 613 0
114 -37 -13 -613 0
-122 11 28 614 0
-122 11 28 -614 0
122 89 -65 615 0
122 89 -65 -615 0
79 -57 -49 616 0
79 -57 -49 -616 0
-15 -118 114 617 0
-15 -118 114 -617 0
-105 -57 51 618 0
-105 -57 51 -618 0
99 61 16 619 0
99 61 16 -619 0
21 -121 85 620 0
21 -121 85 -620 0
-101 53 -95 621 0
-101 53 -95 -621 0
-1 -8 -68 622 0
-1 -8 -68 -622 0
-96 8 88 623 0
-96 8 88 -623 0
6 28 -62 624 0
6 28 -62 -624 0
-50 55 -43 625 0
-50 55 -43 -625 0
46 -105 58 626 0
46 -105 58 -626 0
32 -2 80 627 0
32 -2 80 -627 0
-119 85 45 628 0
-119 85 45 -628 0
-17 -37 85 629 0
-17 -37 85 -629 0
-36 115 75 630 0
-36 115 75 -630 0
-41 106 -105 631 0
-41 106 -105 -631 0
-111 -44 101 632 0
-111 -44 101 -632 0
101 60 13 633 0
101 60 13 -633 0
78 -33 80 634 0
78 -33 80 -634 0
57 -22 -10 635 0
57 -22 -10 -635 0
-7 -16 -52 636 0
-7 -16 -52 -636 0
85 99 108 637 0
85 99 108 -637 0
114 14 -109 638 0
114 14 -109 -638 0
-45 112 33 639 0
-45 112 33 -639 0
20 -80 40 640 0
20 -80 40 -640 0
100 -92 29 641 0
100 -92 29 -641 0
-89 -37 117 642 0
-89 -37 117 -642 0
-120 -86 -44 643 0
-120 -86 -44 -643 0
104 6 -64 644 0
104 6 -64 -644 0
-29 24 41 645 0
-29 24 41 -645 0
-82 28 92 646 0
-82 28 92 -646 0
-4 -17 81 647 0
-4 -17 81 -647 0
-24 82 -13 648 0
-24 82 -13 -648 0
-19 40 -105 649 0
-19 40 -105 -649 0
-44 79 9 650 0
-44 79 9 -650 0
86 -104 89 651 0
86 -104 89 -651 0
96 -92 -32 652 0
96 -92 -32 -652 0
-104 110 76 653 0
-104 110 76 -653 0
-90 70 -52 654 0
-90 70 -52 -654 0
53 71 -56 655 0
53 71 -56 -655 0
-123 115 55 656 0
-123 115 55 -656 0
102 -13 -110 657 0
102 -13 -110 -657 0
-2 42 -55 658 0
-2 42 -55 -658 0
90 -122 -51 659 0
90 -122 -51 -659 0
117 118 23 660 0
117 118 23 -660 0
124 51 -43 661 0
124 51 -43 -661 0
71 -112 97 662 0
71 -112 97 -662 0
1 -122 -77 663 0
1 -122 -77 -663 0
664 665 666 667 0
664 665 666 -667 0
664 665 -666 667 0
664 665 -666 -667 0
664 -665 666 667 0
664 -665 666 -667 0
664 -665 -666 667 0
664 -665 -666 -667 0
-664 665 666 667 0
-664 665 666 -667 0
-664 665 -666 667 0
-664 665 -666 -667 0
-664 -665 666 667 0
-664 -665 666 -667 0
-664 -665 -666 667 0
-664 -665 -666 -667 0